c "301134.clq"
p edge 80 304
e 1 5
e 1 6
e 1 11
e 1 13
e 1 16
e 1 32
e 1 39
e 2 5
e 2 6
e 2 7
e 2 8
e 2 10
e 2 12
e 2 14
e 2 17
e 2 18
e 2 26
e 2 27
e 2 32
e 2 37
e 2 51
e 2 61
e 2 63
e 2 65
e 2 66
e 3 5
e 3 6
e 3 7
e 3 10
e 3 11
e 3 16
e 3 27
e 3 29
e 3 30
e 3 34
e 3 43
e 3 45
e 3 48
e 3 52
e 3 57
e 3 75
e 3 78
e 4 5
e 4 9
e 4 13
e 4 22
e 4 34
e 4 47
e 5 6
e 5 7
e 5 8
e 5 10
e 5 11
e 5 14
e 5 17
e 5 18
e 5 20
e 5 21
e 5 23
e 5 25
e 5 27
e 5 29
e 5 33
e 5 41
e 5 49
e 5 50
e 5 62
e 5 63
e 5 66
e 5 70
e 5 71
e 5 75
e 5 79
e 6 7
e 6 8
e 6 9
e 6 13
e 6 14
e 6 17
e 6 20
e 6 21
e 6 24
e 6 27
e 6 28
e 6 32
e 6 39
e 6 43
e 6 46
e 6 47
e 6 51
e 7 8
e 7 9
e 7 10
e 7 11
e 7 15
e 7 17
e 7 19
e 7 21
e 7 23
e 7 24
e 7 25
e 7 35
e 7 38
e 7 39
e 7 40
e 7 47
e 7 56
e 7 65
e 8 9
e 8 12
e 8 16
e 8 25
e 8 26
e 8 30
e 8 36
e 8 37
e 8 38
e 8 45
e 8 53
e 8 62
e 8 66
e 8 67
e 8 72
e 8 78
e 9 15
e 9 29
e 9 39
e 9 49
e 9 61
e 9 62
e 9 63
e 9 67
e 9 68
e 9 77
e 9 80
e 10 12
e 10 18
e 10 22
e 10 26
e 10 37
e 10 45
e 10 51
e 10 53
e 10 60
e 11 12
e 11 13
e 11 14
e 11 20
e 11 22
e 11 31
e 11 33
e 11 38
e 11 40
e 11 42
e 11 48
e 11 54
e 11 59
e 11 72
e 11 73
e 11 77
e 12 15
e 12 16
e 12 19
e 12 28
e 12 33
e 12 69
e 13 15
e 13 19
e 13 42
e 13 49
e 13 62
e 14 18
e 14 20
e 14 44
e 14 52
e 14 54
e 14 55
e 14 65
e 14 69
e 14 70
e 15 19
e 15 25
e 15 28
e 15 36
e 15 40
e 15 43
e 15 45
e 15 60
e 16 21
e 16 23
e 16 24
e 16 29
e 16 30
e 16 43
e 16 46
e 16 56
e 16 61
e 17 74
e 18 38
e 18 64
e 18 70
e 18 74
e 19 52
e 19 79
e 20 24
e 20 28
e 20 72
e 21 22
e 21 23
e 21 44
e 21 57
e 21 59
e 21 65
e 21 80
e 22 48
e 22 60
e 23 53
e 23 58
e 23 71
e 23 75
e 24 31
e 24 32
e 24 33
e 24 35
e 24 36
e 24 50
e 24 53
e 25 26
e 25 34
e 25 42
e 25 44
e 25 57
e 25 76
e 26 30
e 26 31
e 26 36
e 26 46
e 26 56
e 26 79
e 27 58
e 27 68
e 27 77
e 28 50
e 29 31
e 29 35
e 29 40
e 29 55
e 29 58
e 29 64
e 29 69
e 30 41
e 30 58
e 30 63
e 31 46
e 31 47
e 33 34
e 33 35
e 33 49
e 33 55
e 34 44
e 34 52
e 34 55
e 35 57
e 35 61
e 35 66
e 35 68
e 36 37
e 36 51
e 36 75
e 37 42
e 37 48
e 37 64
e 37 67
e 37 73
e 38 72
e 38 73
e 39 41
e 39 50
e 39 54
e 40 41
e 40 60
e 40 71
e 40 79
e 42 76
e 43 54
e 43 71
e 43 74
e 44 69
e 48 56
e 48 78
e 50 76
e 51 59
e 52 59
e 56 68
e 58 67
e 58 73
e 58 78
e 60 76
e 63 64
e 65 74
e 66 70
e 67 77
e 69 80
e 72 80
